p cnf 71 264
-3 1 0
-3 2 0
-1 -2 3 0
-6 -4 0
-6 -5 0
4 5 6 0
-7 3 0
-7 6 0
-3 -6 7 0
9 -5 -10 0
-9 5 -10 0
9 5 10 0
-9 -5 10 0
8 10 -11 0
-8 -10 -11 0
8 -10 11 0
-8 10 11 0
-12 -11 0
-12 -4 0
11 4 12 0
13 12 0
13 11 0
-12 -11 -13 0
7 -13 -14 0
-7 13 -14 0
7 13 14 0
-7 -13 14 0
-15 9 0
-15 -2 0
-9 2 15 0
16 14 0
16 15 0
-14 -15 -16 0
-17 -15 0
-17 2 0
15 -2 17 0
-18 -3 0
-18 17 0
3 -17 18 0
-19 16 0
-19 18 0
-16 -18 19 0
-21 -7 0
-21 -20 0
7 20 21 0
19 21 -22 0
-19 -21 -22 0
19 -21 22 0
-19 21 22 0
23 -14 0
23 8 0
14 -8 -23 0
24 -15 0
24 23 0
15 -23 -24 0
-22 24 -25 0
22 -24 -25 0
-22 -24 25 0
22 24 25 0
-27 1 0
-27 26 0
-1 -26 27 0
29 -5 0
29 -6 0
5 6 -29 0
-30 28 0
-30 29 0
-28 -29 30 0
3 -30 -31 0
-3 30 -31 0
3 30 31 0
-3 -30 31 0
-31 -4 -32 0
31 4 -32 0
-31 4 32 0
31 -4 32 0
-2 -32 -33 0
2 32 -33 0
-2 32 33 0
2 -32 33 0
-34 -27 0
-34 -33 0
27 33 34 0
3 -34 -35 0
-3 34 -35 0
3 34 35 0
-3 -34 35 0
-36 35 0
-36 -7 0
-35 7 36 0
37 31 0
37 8 0
-31 -8 -37 0
-38 -6 0
-38 -2 0
6 2 38 0
-39 -34 0
-39 -38 0
34 38 39 0
37 -39 -40 0
-37 39 -40 0
37 39 40 0
-37 -39 40 0
41 36 0
41 -40 0
-36 40 -41 0
18 -29 -42 0
-18 29 -42 0
18 29 42 0
-18 -29 42 0
41 -42 -43 0
-41 42 -43 0
41 42 43 0
-41 -42 43 0
-30 44 -45 0
30 -44 -45 0
-30 -44 45 0
30 44 45 0
-46 -45 0
-46 9 0
45 -9 46 0
47 -23 0
47 46 0
23 -46 -47 0
48 -43 0
48 47 0
43 -47 -48 0
49 9 0
49 -30 0
-9 30 -49 0
-50 -3 0
-50 -45 0
3 45 50 0
-33 -6 -51 0
33 6 -51 0
-33 6 51 0
33 -6 51 0
2 51 -52 0
-2 -51 -52 0
2 -51 52 0
-2 51 52 0
-3 28 -53 0
3 -28 -53 0
-3 -28 53 0
3 28 53 0
-54 53 0
-54 32 0
-53 -32 54 0
-55 -33 0
-55 54 0
33 -54 55 0
-56 -52 0
-56 55 0
52 -55 56 0
50 -56 -57 0
-50 56 -57 0
50 56 57 0
-50 -56 57 0
-58 -49 0
-58 -57 0
49 57 58 0
-59 -48 0
-59 58 0
48 -58 59 0
-60 -9 0
-60 26 0
9 -26 60 0
-61 5 0
-61 -51 0
-5 51 61 0
62 -9 0
62 4 0
9 -4 -62 0
63 62 0
63 54 0
-62 -54 -63 0
64 61 0
64 63 0
-61 -63 -64 0
54 15 -65 0
-54 -15 -65 0
54 -15 65 0
-54 15 65 0
66 -6 0
66 -44 0
6 44 -66 0
-65 -66 -67 0
65 66 -67 0
-65 66 67 0
65 -66 67 0
-68 64 0
-68 -67 0
-64 67 68 0
-69 60 0
-69 -68 0
-60 68 69 0
70 -59 0
70 -69 0
59 69 -70 0
71 -25 0
71 -70 0
25 70 -71 0
27 -59 19 60 -18 0
19 15 -33 12 57 0
5 25 -36 0
3 30 37 0
-59 -40 -4 -27 31 -71 0
-59 -21 -25 0
-33 35 -3 -64 -21 0
39 -26 -8 6 3 0
58 16 -20 -37 0
68 35 0
50 66 -42 -25 19 0
-9 -16 0
-46 31 -29 2 35 -10 0
63 -62 0
-16 -40 -39 0
-50 12 -68 -46 0
-35 -57 -67 -48 7 0
-18 34 31 0
71 -22 -7 0
25 10 -39 31 0
-52 -12 49 -18 15 0
65 7 29 0
51 63 0
-1 -57 56 22 48 -18 0
12 65 -3 0
-32 63 0
60 53 15 63 0
32 -7 5 34 0
60 5 0
-56 48 -24 -21 0
37 31 -20 -16 0
-54 32 -62 0
-57 -26 -4 -64 60 52 0
-67 -30 -21 -36 66 29 0
-29 -36 13 62 -64 54 0
-42 -32 -23 0
-49 -67 -28 0
-15 -24 17 0
-27 -48 0
52 55 0
-20 -40 36 -62 -13 0
51 -50 -53 0
2 -8 -67 -32 0
-15 -17 -5 0
-71 -48 0
63 -18 -35 -64 -67 -21 0
61 11 -37 70 0
-4 2 -67 0
21 -2 13 0
-24 28 -25 -16 19 -21 0
-28 65 32 3 1 -67 0
32 4 42 0
-37 3 -32 -22 -33 -71 0
9 62 14 19 0
-61 -30 0
4 -1 66 -18 -36 0
35 -46 -19 -11 40 -16 0
56 -71 32 54 0
-6 -45 -46 44 20 0
21 -9 -64 20 -42 19 0
-56 -39 40 0
71 0
